NAME : census.standard.tour
TYPE : TOUR
DIMENSION : 68
TOUR_SECTION
1
2
3
8
9
32
34
37
47
49
52
63
64
65
4
6
14
17
25
27
33
39
40
50
54
66
67
68
5
16
38
44
7
15
31
35
42
46
60
62
10
12
41
56
59
11
23
53
61
13
22
24
26
30
55
18
20
21
28
29
43
45
48
51
57
58
19
36
-1
EOF
